certificates/rado_a7_c256_N37.cnf
c Rad2 upper bound instance: x1 + 7*x2 - x3 = 256, interval [1,37]
p cnf 37 256
1 4 37 0
-1 -4 -37 0
2 5 37 0
-2 -5 -37 0
3 6 37 0
-3 -6 -37 0
4 7 37 0
-4 -7 -37 0
1 5 36 0
-1 -5 -36 0
5 8 37 0
-5 -8 -37 0
2 6 36 0
-2 -6 -36 0
6 9 37 0
-6 -9 -37 0
3 7 36 0
-3 -7 -36 0
7 10 37 0
-7 -10 -37 0
4 8 36 0
-4 -8 -36 0
8 11 37 0
-8 -11 -37 0
5 9 36 0
-5 -9 -36 0
9 12 37 0
-9 -12 -37 0
6 10 36 0
-6 -10 -36 0
10 13 37 0
-10 -13 -37 0
7 11 36 0
-7 -11 -36 0
11 14 37 0
-11 -14 -37 0
1 12 35 0
-1 -12 -35 0
8 12 36 0
-8 -12 -36 0
12 15 37 0
-12 -15 -37 0
2 13 35 0
-2 -13 -35 0
9 13 36 0
-9 -13 -36 0
13 16 37 0
-13 -16 -37 0
3 14 35 0
-3 -14 -35 0
10 14 36 0
-10 -14 -36 0
14 17 37 0
-14 -17 -37 0
4 15 35 0
-4 -15 -35 0
11 15 36 0
-11 -15 -36 0
15 18 37 0
-15 -18 -37 0
5 16 35 0
-5 -16 -35 0
12 16 36 0
-12 -16 -36 0
16 19 37 0
-16 -19 -37 0
6 17 35 0
-6 -17 -35 0
13 17 36 0
-13 -17 -36 0
17 20 37 0
-17 -20 -37 0
7 18 35 0
-7 -18 -35 0
14 18 36 0
-14 -18 -36 0
18 21 37 0
-18 -21 -37 0
1 19 34 0
-1 -19 -34 0
8 19 35 0
-8 -19 -35 0
15 19 36 0
-15 -19 -36 0
19 22 37 0
-19 -22 -37 0
2 20 34 0
-2 -20 -34 0
9 20 35 0
-9 -20 -35 0
16 20 36 0
-16 -20 -36 0
20 23 37 0
-20 -23 -37 0
3 21 34 0
-3 -21 -34 0
10 21 35 0
-10 -21 -35 0
17 21 36 0
-17 -21 -36 0
21 24 37 0
-21 -24 -37 0
4 22 34 0
-4 -22 -34 0
11 22 35 0
-11 -22 -35 0
18 22 36 0
-18 -22 -36 0
22 25 37 0
-22 -25 -37 0
5 23 34 0
-5 -23 -34 0
12 23 35 0
-12 -23 -35 0
19 23 36 0
-19 -23 -36 0
23 26 37 0
-23 -26 -37 0
6 24 34 0
-6 -24 -34 0
13 24 35 0
-13 -24 -35 0
20 24 36 0
-20 -24 -36 0
24 27 37 0
-24 -27 -37 0
7 25 34 0
-7 -25 -34 0
14 25 35 0
-14 -25 -35 0
21 25 36 0
-21 -25 -36 0
25 28 37 0
-25 -28 -37 0
1 26 33 0
-1 -26 -33 0
8 26 34 0
-8 -26 -34 0
15 26 35 0
-15 -26 -35 0
22 26 36 0
-22 -26 -36 0
26 29 37 0
-26 -29 -37 0
2 27 33 0
-2 -27 -33 0
9 27 34 0
-9 -27 -34 0
16 27 35 0
-16 -27 -35 0
23 27 36 0
-23 -27 -36 0
27 30 37 0
-27 -30 -37 0
3 28 33 0
-3 -28 -33 0
10 28 34 0
-10 -28 -34 0
17 28 35 0
-17 -28 -35 0
24 28 36 0
-24 -28 -36 0
28 31 37 0
-28 -31 -37 0
4 29 33 0
-4 -29 -33 0
11 29 34 0
-11 -29 -34 0
18 29 35 0
-18 -29 -35 0
25 29 36 0
-25 -29 -36 0
29 32 37 0
-29 -32 -37 0
5 30 33 0
-5 -30 -33 0
12 30 34 0
-12 -30 -34 0
19 30 35 0
-19 -30 -35 0
26 30 36 0
-26 -30 -36 0
30 33 37 0
-30 -33 -37 0
6 31 33 0
-6 -31 -33 0
13 31 34 0
-13 -31 -34 0
20 31 35 0
-20 -31 -35 0
27 31 36 0
-27 -31 -36 0
31 34 37 0
-31 -34 -37 0
7 32 33 0
-7 -32 -33 0
14 32 34 0
-14 -32 -34 0
21 32 35 0
-21 -32 -35 0
28 32 36 0
-28 -32 -36 0
32 35 37 0
-32 -35 -37 0
1 32 33 0
-1 -32 -33 0
8 33 0
-8 -33 0
15 33 34 0
-15 -33 -34 0
22 33 35 0
-22 -33 -35 0
29 33 36 0
-29 -33 -36 0
33 36 37 0
-33 -36 -37 0
2 32 34 0
-2 -32 -34 0
9 33 34 0
-9 -33 -34 0
16 34 0
-16 -34 0
23 34 35 0
-23 -34 -35 0
30 34 36 0
-30 -34 -36 0
34 37 0
-34 -37 0
3 32 35 0
-3 -32 -35 0
10 33 35 0
-10 -33 -35 0
17 34 35 0
-17 -34 -35 0
24 35 0
-24 -35 0
31 35 36 0
-31 -35 -36 0
4 32 36 0
-4 -32 -36 0
11 33 36 0
-11 -33 -36 0
18 34 36 0
-18 -34 -36 0
25 35 36 0
-25 -35 -36 0
32 36 0
-32 -36 0
5 32 37 0
-5 -32 -37 0
12 33 37 0
-12 -33 -37 0
19 34 37 0
-19 -34 -37 0
26 35 37 0
-26 -35 -37 0
