certificates/rado_a7_c256_N37.drat
-37 0
34 0
-16 0
13 0
19 0
-31 0
-1 0
28 0
4 0
-10 0
-22 0
7 0
25 0
0
